50
    1   510   500
    2   428   418
    3   286   276
    4   161   151
    5    36    26
    6   178   168
    7    89    79
    8   254   244
    9   374   364
   10   156   146
   11    28    18
   12   175   165
   13   311   301
   14   476   466
   15   190   180
   16   462   452
   17   203   193
   18   357   347
   19   276   266
   20   313   303
   21   282   272
   22   281   271
   23   357   347
   24   309   299
   25   170   160
   26   269   259
   27   142   132
   28   380   370
   29   143   133
   30   441   431
   31   479   469
   32   454   444
   33   403   393
   34   192   182
   35   222   212
   36   184   174
   37   211   201
   38   233   223
   39   484   474
   40    68    58
   41   367   357
   42   360   350
   43   430   420
   44    21    11
   45   506   496
   46   102    92
   47   485   475
   48   298   288
   49    11     1
   50    11     1
4352
